tasks:  60  machines:  11
 1 1 73
 2 1 26
 3 1 39
 4 1 55
 5 1 72
 6 1 89
 7 1 6
 8 1 1
 9 1 71
 10 1 3
 1 2 7
 2 2 28
 3 2 27
 4 2 1
 5 2 57
 6 2 29
 7 2 2
 8 2 15
 9 2 97
 10 2 57
 1 3 26
 2 3 81
 3 3 85
 4 3 48
 5 3 12
 6 3 93
 7 3 23
 8 3 4
 9 3 85
 10 3 64
 1 4 53
 2 4 16
 3 4 43
 4 4 97
 5 4 90
 6 4 49
 7 4 54
 8 4 88
 9 4 59
 10 4 87
 1 5 48
 2 5 77
 3 5 62
 4 5 29
 5 5 79
 6 5 44
 7 5 16
 8 5 85
 9 5 52
 10 5 27
 1 6 1
 2 6 97
 3 6 30
 4 6 80
 5 6 30
 6 6 7
 7 6 87
 8 6 18
 9 6 30
 10 6 21
 1 7 72
 2 7 8
 3 7 86
 4 7 61
 5 7 71
 6 7 10
 7 7 99
 8 7 6
 9 7 14
 10 7 75
 1 8 48
 2 8 36
 3 8 48
 4 8 47
 5 8 61
 6 8 62
 7 8 86
 8 8 31
 9 8 50
 10 8 97
 1 9 82
 2 9 32
 3 9 40
 4 9 85
 5 9 2
 6 9 62
 7 9 9
 8 9 18
 9 9 8
 10 9 82
 1 10 24
 2 10 82
 3 10 50
 4 10 19
 5 10 32
 6 10 41
 7 10 42
 8 10 71
 9 10 49
 10 10 23
 1 11 66
 2 11 16
 3 11 41
 4 11 73
 5 11 43
 6 11 45
 7 11 4
 8 11 19
 9 11 42
 10 11 21
 1 12 90
 2 12 7
 3 12 33
 4 12 23
 5 12 24
 6 12 47
 7 12 2
 8 12 17
 9 12 4
 10 12 74
 1 13 74
 2 13 80
 3 13 6
 4 13 86
 5 13 32
 6 13 53
 7 13 9
 8 13 39
 9 13 3
 10 13 12
 1 14 22
 2 14 2
 3 14 67
 4 14 71
 5 14 81
 6 14 8
 7 14 14
 8 14 74
 9 14 42
 10 14 48
 1 15 29
 2 15 17
 3 15 93
 4 15 85
 5 15 11
 6 15 16
 7 15 60
 8 15 12
 9 15 30
 10 15 29
 1 16 73
 2 16 51
 3 16 3
 4 16 75
 5 16 29
 6 16 83
 7 16 22
 8 16 14
 9 16 62
 10 16 67
 1 17 67
 2 17 80
 3 17 3
 4 17 54
 5 17 10
 6 17 99
 7 17 90
 8 17 32
 9 17 59
 10 17 9
 1 18 79
 2 18 56
 3 18 22
 4 18 69
 5 18 43
 6 18 42
 7 18 83
 8 18 43
 9 18 59
 10 18 23
 1 19 24
 2 19 76
 3 19 50
 4 19 7
 5 19 21
 6 19 1
 7 19 97
 8 19 85
 9 19 10
 10 19 46
 1 20 65
 2 20 76
 3 20 11
 4 20 47
 5 20 77
 6 20 1
 7 20 28
 8 20 51
 9 20 66
 10 20 20
 1 21 88
 2 21 91
 3 21 72
 4 21 10
 5 21 79
 6 21 71
 7 21 51
 8 21 15
 9 21 85
 10 21 61
 1 22 34
 2 22 27
 3 22 62
 4 22 35
 5 22 45
 6 22 81
 7 22 72
 8 22 60
 9 22 69
 10 22 60
 1 23 77
 2 23 44
 3 23 15
 4 23 46
 5 23 73
 6 23 2
 7 23 34
 8 23 66
 9 23 92
 10 23 74
 1 24 81
 2 24 30
 3 24 29
 4 24 36
 5 24 27
 6 24 29
 7 24 53
 8 24 63
 9 24 52
 10 24 75
 1 25 14
 2 25 46
 3 25 97
 4 25 78
 5 25 59
 6 25 73
 7 25 47
 8 25 2
 9 25 15
 10 25 27
 1 26 51
 2 26 35
 3 26 95
 4 26 43
 5 26 37
 6 26 89
 7 26 61
 8 26 55
 9 26 62
 10 26 86
 1 27 16
 2 27 11
 3 27 88
 4 27 2
 5 27 20
 6 27 28
 7 27 3
 8 27 96
 9 27 83
 10 27 31
 1 28 12
 2 28 29
 3 28 31
 4 28 91
 5 28 66
 6 28 44
 7 28 73
 8 28 58
 9 28 19
 10 28 71
 1 29 19
 2 29 46
 3 29 2
 4 29 94
 5 29 23
 6 29 27
 7 29 83
 8 29 53
 9 29 42
 10 29 37
 1 30 53
 2 30 5
 3 30 46
 4 30 99
 5 30 13
 6 30 58
 7 30 13
 8 30 20
 9 30 10
 10 30 49
 1 31 97
 2 31 5
 3 31 19
 4 31 13
 5 31 62
 6 31 14
 7 31 56
 8 31 92
 9 31 96
 10 31 50
 1 32 1
 2 32 82
 3 32 71
 4 32 33
 5 32 32
 6 32 80
 7 32 7
 8 32 25
 9 32 33
 10 32 16
 1 33 49
 2 33 99
 3 33 98
 4 33 69
 5 33 74
 6 33 73
 7 33 59
 8 33 7
 9 33 76
 10 33 38
 1 34 9
 2 34 83
 3 34 14
 4 34 59
 5 34 89
 6 34 97
 7 34 97
 8 34 49
 9 34 84
 10 34 4
 1 35 63
 2 35 4
 3 35 9
 4 35 6
 5 35 70
 6 35 71
 7 35 6
 8 35 92
 9 35 85
 10 35 9
 1 36 89
 2 36 89
 3 36 78
 4 36 13
 5 36 93
 6 36 40
 7 36 27
 8 36 60
 9 36 7
 10 36 35
 1 37 92
 2 37 76
 3 37 13
 4 37 53
 5 37 39
 6 37 18
 7 37 67
 8 37 86
 9 37 89
 10 37 55
 1 38 73
 2 38 65
 3 38 48
 4 38 71
 5 38 39
 6 38 97
 7 38 30
 8 38 17
 9 38 36
 10 38 88
 1 39 84
 2 39 97
 3 39 85
 4 39 19
 5 39 91
 6 39 70
 7 39 34
 8 39 82
 9 39 73
 10 39 85
 1 40 14
 2 40 15
 3 40 56
 4 40 2
 5 40 88
 6 40 69
 7 40 69
 8 40 44
 9 40 23
 10 40 16
 1 41 57
 2 41 7
 3 41 42
 4 41 72
 5 41 60
 6 41 98
 7 41 59
 8 41 94
 9 41 78
 10 41 96
 1 42 88
 2 42 83
 3 42 20
 4 42 56
 5 42 77
 6 42 80
 7 42 13
 8 42 82
 9 42 16
 10 42 69
 1 43 18
 2 43 66
 3 43 13
 4 43 1
 5 43 77
 6 43 49
 7 43 51
 8 43 3
 9 43 88
 10 43 52
 1 44 52
 2 44 54
 3 44 82
 4 44 3
 5 44 16
 6 44 27
 7 44 52
 8 44 28
 9 44 18
 10 44 19
 1 45 56
 2 45 4
 3 45 81
 4 45 52
 5 45 94
 6 45 93
 7 45 52
 8 45 86
 9 45 31
 10 45 81
 1 46 39
 2 46 83
 3 46 7
 4 46 19
 5 46 14
 6 46 30
 7 46 79
 8 46 24
 9 46 68
 10 46 79
 1 47 71
 2 47 98
 3 47 77
 4 47 4
 5 47 11
 6 47 59
 7 47 17
 8 47 39
 9 47 13
 10 47 96
 1 48 36
 2 48 74
 3 48 20
 4 48 7
 5 48 81
 6 48 25
 7 48 4
 8 48 64
 9 48 19
 10 48 78
 1 49 1
 2 49 21
 3 49 4
 4 49 15
 5 49 25
 6 49 52
 7 49 4
 8 49 23
 9 49 1
 10 49 5
 1 50 60
 2 50 85
 3 50 80
 4 50 85
 5 50 48
 6 50 98
 7 50 52
 8 50 15
 9 50 73
 10 50 28
 1 51 71
 2 51 36
 3 51 16
 4 51 46
 5 51 40
 6 51 42
 7 51 11
 8 51 90
 9 51 29
 10 51 69
 1 52 16
 2 52 34
 3 52 36
 4 52 72
 5 52 12
 6 52 59
 7 52 95
 8 52 71
 9 52 45
 10 52 81
 1 53 92
 2 53 36
 3 53 98
 4 53 63
 5 53 67
 6 53 60
 7 53 40
 8 53 6
 9 53 81
 10 53 27
 1 54 12
 2 54 19
 3 54 96
 4 54 75
 5 54 32
 6 54 4
 7 54 98
 8 54 15
 9 54 41
 10 54 95
 1 55 42
 2 55 53
 3 55 7
 4 55 59
 5 55 21
 6 55 31
 7 55 66
 8 55 22
 9 55 80
 10 55 77
 1 56 77
 2 56 91
 3 56 21
 4 56 36
 5 56 4
 6 56 14
 7 56 74
 8 56 16
 9 56 56
 10 56 27
 1 57 36
 2 57 74
 3 57 61
 4 57 47
 5 57 95
 6 57 37
 7 57 38
 8 57 99
 9 57 94
 10 57 4
 1 58 94
 2 58 46
 3 58 4
 4 58 7
 5 58 83
 6 58 97
 7 58 99
 8 58 8
 9 58 72
 10 58 16
 1 59 82
 2 59 65
 3 59 18
 4 59 23
 5 59 66
 6 59 91
 7 59 52
 8 59 95
 9 59 31
 10 59 91
